jpf-symbc-bounded/src/examples/symbolicheap/bounded/bounddb/LinkedList-04.cnf
p cnf 594 868               
-2 -1 -53 0
53 -61 0
-1 54 0
-2 54 0
1 2 -54 0
-54 -3 -55 0
55 -61 0
-3 56 0
-54 56 0
3 54 -56 0
-56 -4 -57 0
57 -61 0
-4 58 0
-56 58 0
4 56 -58 0
-58 -5 -59 0
59 -61 0
5 58 -60 0
60 -61 0
-11 -10 -62 0
62 -69 0
-13 -12 -64 0
64 -68 0
-12 65 0
-13 65 0
12 13 -65 0
-65 -14 -66 0
66 -68 0
68 -69 0
-18 -17 -70 0
70 -78 0
-17 71 0
-18 71 0
17 18 -71 0
-71 -19 -72 0
72 -78 0
-19 73 0
-71 73 0
19 71 -73 0
-73 -20 -74 0
74 -78 0
-20 75 0
-73 75 0
20 73 -75 0
-75 -21 -76 0
76 -78 0
21 75 -77 0
77 -78 0
78 -106 0
-23 -22 -79 0
79 -87 0
-22 80 0
-23 80 0
22 23 -80 0
-80 -24 -81 0
81 -87 0
-24 82 0
-80 82 0
24 80 -82 0
-82 -25 -83 0
83 -87 0
-25 84 0
-82 84 0
25 82 -84 0
-84 -26 -85 0
85 -87 0
26 84 -86 0
86 -87 0
87 -106 0
-28 -27 -88 0
88 -96 0
-27 89 0
-28 89 0
27 28 -89 0
-89 -29 -90 0
90 -96 0
-29 91 0
-89 91 0
29 89 -91 0
-91 -30 -92 0
92 -96 0
-30 93 0
-91 93 0
30 91 -93 0
-93 -31 -94 0
94 -96 0
31 93 -95 0
95 -96 0
96 -106 0
-33 -32 -97 0
97 -105 0
-32 98 0
-33 98 0
32 33 -98 0
-98 -34 -99 0
99 -105 0
-34 100 0
-98 100 0
34 98 -100 0
-100 -35 -101 0
101 -105 0
-35 102 0
-100 102 0
35 100 -102 0
-102 -36 -103 0
103 -105 0
36 102 -104 0
104 -105 0
105 -106 0
-42 -41 -107 0
107 -111 0
-41 108 0
-42 108 0
41 42 -108 0
-108 -43 -109 0
109 -111 0
111 -114 0
-46 -45 -112 0
112 -114 0
-49 -48 -115 0
115 -121 0
-48 116 0
-49 116 0
48 49 -116 0
-116 -50 -117 0
117 -121 0
-50 118 0
-116 118 0
50 116 -118 0
-118 -51 -119 0
119 -121 0
51 118 -120 0
120 -121 0
-10 63 0
-11 63 0
10 11 -63 0
-6 -63 122 0
-122 126 0
-14 67 0
-65 67 0
14 65 -67 0
-7 -67 123 0
-123 126 0
-8 -15 124 0
-124 126 0
-9 -16 125 0
-125 126 0
-126 -201 0
-43 110 0
-108 110 0
43 108 -110 0
-37 -110 127 0
-127 131 0
-38 -44 128 0
-128 131 0
-45 113 0
-46 113 0
45 46 -113 0
-39 -113 129 0
-129 131 0
-40 -47 130 0
-130 131 0
-131 -137 0
37 110 -132 0
132 -136 0
38 44 -133 0
133 -136 0
39 113 -134 0
134 -136 0
40 47 -135 0
135 -136 0
136 -137 0
137 -200 0
5 -142 0
52 -142 0
-5 -52 142 0
-142 -143 0
4 -141 0
52 -141 0
-4 -52 141 0
-141 -143 0
3 -140 0
52 -140 0
-3 -52 140 0
-140 -143 0
143 -199 0
-140 190 0
2 -139 0
52 -139 0
-2 -52 139 0
139 -180 0
-11 145 0
-42 145 0
11 42 -145 0
145 -180 0
-139 -145 180 0
-180 190 0
140 180 -190 0
-190 139 -193 0
193 -198 0
-141 191 0
139 -181 0
-43 162 0
13 -150 0
145 -150 0
-13 -145 150 0
-150 162 0
43 150 -162 0
162 -181 0
-139 -162 181 0
-181 191 0
13 -184 0
140 -184 0
-13 -140 184 0
-184 191 0
141 181 184 -191 0
139 -194 0
190 -194 0
-191 194 -195 0
195 -198 0
-142 192 0
-14 -145 151 0
-151 159 0
-43 -46 153 0
-153 159 0
-159 177 0
-14 164 0
-13 -46 155 0
-155 164 0
-145 -164 167 0
-167 174 0
-46 -162 169 0
-169 174 0
-174 177 0
-139 -177 182 0
-182 192 0
-140 -164 185 0
-185 192 0
46 -187 0
141 -187 0
-46 -141 187 0
-187 192 0
139 -196 0
190 -196 0
191 -196 0
-192 196 -197 0
197 -198 0
198 -199 0
199 -200 0
200 -201 0
201 -297 0
6 63 -202 0
202 -206 0
7 67 -203 0
203 -206 0
8 15 -204 0
204 -206 0
9 16 -205 0
205 -206 0
206 -296 0
-191 -190 -225 0
-43 -210 0
13 -210 0
43 -13 210 0
10 -247 0
43 -247 0
12 -249 0
210 -249 0
247 249 -251 0
14 -250 0
210 -250 0
11 -248 0
43 -248 0
251 250 248 252 0
-210 -252 253 0
145 229 0
-43 229 0
43 230 0
-145 230 0
210 -230 231 0
-229 -231 232 0
-42 -43 243 0
41 -242 0
43 -242 0
44 -244 0
210 -244 0
242 244 -245 0
245 43 255 0
-243 -255 256 0
-232 -256 257 0
-253 -257 258 0
-258 -259 0
210 43 211 0
-13 209 0
-43 209 0
-145 -209 226 0
-211 -226 254 0
-254 -259 0
225 259 -260 0
260 -295 0
-14 -214 0
46 -214 0
214 14 216 0
-14 213 0
-46 213 0
-145 -213 238 0
-216 -238 287 0
-192 -190 -237 0
-287 237 -288 0
288 -295 0
-209 -213 267 0
-216 -267 289 0
-192 -191 -266 0
-289 266 -290 0
290 -295 0
295 -296 0
296 -297 0
-48 52 -298 0
298 -302 0
-49 52 -299 0
299 -302 0
-50 52 -300 0
300 -302 0
-51 52 -301 0
301 -302 0
-1 -52 138 0
142 141 140 139 303 0
-138 -303 304 0
-304 -565 0
-10 -139 305 0
-305 315 0
-12 -140 308 0
-308 315 0
-15 -141 311 0
-311 315 0
-16 -142 313 0
-313 315 0
9 -314 0
142 -314 0
-9 -142 314 0
184 314 -317 0
6 -306 0
139 -306 0
7 -309 0
140 -309 0
8 -312 0
141 -312 0
306 309 312 -316 0
14 -310 0
140 -310 0
11 -307 0
139 -307 0
317 316 310 307 318 0
-315 -318 319 0
-319 -515 0
-139 422 0
140 -411 0
-7 343 0
6 -327 0
7 -327 0
-6 -7 327 0
-327 340 0
8 -329 0
13 -329 0
-8 -13 329 0
-329 340 0
327 329 -340 0
-340 343 0
7 340 -343 0
-343 400 0
7 -323 0
11 -323 0
-7 -11 323 0
-323 388 0
-6 338 0
-323 338 0
6 323 -338 0
338 -361 0
343 -361 0
-338 -343 361 0
-361 388 0
8 -368 0
-13 344 0
9 -331 0
14 -331 0
-9 -14 331 0
-331 344 0
13 331 -344 0
344 -368 0
-8 -344 368 0
-368 388 0
14 -371 0
8 -336 0
9 -336 0
-8 -9 336 0
336 -371 0
-14 -336 371 0
-371 388 0
323 361 368 371 -388 0
-388 400 0
343 388 -400 0
400 -411 0
-140 -400 411 0
-411 422 0
141 -415 0
-8 404 0
8 -373 0
338 -373 0
-8 -338 373 0
-373 393 0
8 -334 0
11 -334 0
-8 -11 334 0
334 -376 0
343 -376 0
-334 -343 376 0
-376 393 0
373 376 -393 0
-393 404 0
8 393 -404 0
404 -415 0
-141 -404 415 0
-415 422 0
142 -419 0
336 -419 0
-142 -336 419 0
-419 422 0
139 411 415 419 -422 0
11 6 428 0
-10 -428 429 0
-429 -430 0
43 42 37 426 0
-41 -426 427 0
-427 -430 0
430 -441 0
6 -432 0
37 -432 0
11 -436 0
38 -436 0
432 436 -438 0
438 -440 0
-6 -41 431 0
-431 437 0
-11 -44 435 0
-435 437 0
-437 -439 0
-6 -43 434 0
-434 -439 0
-6 -42 433 0
-433 -439 0
439 -440 0
440 -441 0
441 -454 0
7 -445 0
42 -445 0
8 -449 0
43 -449 0
432 445 449 -451 0
451 -453 0
-10 -37 442 0
-442 450 0
-12 -42 444 0
-444 450 0
-15 -43 448 0
-448 450 0
-450 -452 0
-14 -42 447 0
-447 -452 0
-13 -42 446 0
-446 -452 0
-11 -37 443 0
-443 -452 0
452 -453 0
453 -454 0
-422 454 -455 0
455 -514 0
-140 423 0
139 -407 0
-11 397 0
-323 385 0
11 -348 0
338 -348 0
-11 -338 348 0
-348 385 0
11 -324 0
13 -324 0
-11 -13 324 0
324 -356 0
334 -356 0
-324 -334 356 0
-356 385 0
323 348 356 -385 0
-385 397 0
11 385 -397 0
397 -407 0
-139 -397 407 0
-407 423 0
141 -416 0
334 -416 0
-141 -334 416 0
-416 423 0
142 -420 0
11 -380 0
336 -380 0
-11 -336 380 0
380 -420 0
-142 -380 420 0
-420 423 0
140 407 416 420 -423 0
14 13 7 457 0
-12 -457 458 0
-458 -459 0
38 -44 456 0
-456 -459 0
459 -471 0
13 -464 0
39 -464 0
14 -466 0
40 -466 0
445 464 466 -468 0
468 -470 0
-7 -41 460 0
-460 467 0
-13 -45 463 0
-463 467 0
-14 -47 465 0
-465 467 0
-467 -469 0
-7 -43 462 0
-462 -469 0
-7 -37 461 0
-461 -469 0
-155 -469 0
469 -470 0
470 -471 0
471 -476 0
436 -475 0
-6 -38 473 0
-473 -474 0
-10 -38 472 0
-472 -474 0
474 -475 0
475 -476 0
-423 476 -477 0
477 -514 0
-141 424 0
-314 424 0
139 -408 0
-324 398 0
324 -349 0
338 -349 0
-324 -338 349 0
-349 386 0
11 -353 0
344 -353 0
-11 -344 353 0
-353 386 0
9 -359 0
11 -325 0
14 -325 0
-11 -14 325 0
325 -359 0
-9 -325 359 0
-359 386 0
349 353 359 -386 0
-386 398 0
324 386 -398 0
398 -408 0
-139 -398 408 0
-408 424 0
140 -412 0
-344 401 0
-331 390 0
324 -362 0
343 -362 0
-324 -343 362 0
-362 390 0
323 -365 0
344 -365 0
-323 -344 365 0
-365 390 0
331 362 365 -390 0
-390 401 0
344 390 -401 0
401 -412 0
-140 -401 412 0
-412 424 0
141 314 408 412 -424 0
8 -15 480 0
-480 -481 0
46 39 478 0
-45 -478 479 0
-479 -481 0
481 -487 0
449 -486 0
-8 -42 484 0
-484 -485 0
-8 -37 483 0
-483 -485 0
-8 -41 482 0
-482 -485 0
485 -486 0
486 -487 0
487 -497 0
9 -492 0
46 -492 0
464 492 -494 0
494 -496 0
-12 -39 488 0
-488 493 0
-16 -46 491 0
-491 493 0
-493 -495 0
-14 -39 490 0
-490 -495 0
-7 -39 489 0
-489 -495 0
495 -496 0
496 -497 0
-424 497 -498 0
498 -514 0
-142 425 0
139 -409 0
325 -409 0
-139 -325 409 0
-409 425 0
140 -413 0
-14 402 0
325 -363 0
343 -363 0
-325 -343 363 0
-363 391 0
14 -366 0
323 -366 0
-14 -323 366 0
-366 391 0
363 366 -391 0
-391 402 0
14 391 -402 0
402 -413 0
-140 -402 413 0
-413 425 0
141 -417 0
8 -374 0
325 -374 0
-8 -325 374 0
374 -417 0
-141 -374 417 0
-417 425 0
142 409 413 417 -425 0
9 -16 500 0
-500 -501 0
40 -47 499 0
-499 -501 0
501 -506 0
492 -505 0
-9 -39 503 0
-503 -504 0
-9 -45 502 0
-502 -504 0
504 -505 0
505 -506 0
506 -512 0
466 -511 0
-13 -40 509 0
-509 -510 0
-7 -40 508 0
-508 -510 0
-12 -40 507 0
-507 -510 0
510 -511 0
511 -512 0
-425 512 -513 0
513 -514 0
514 -515 0
515 -564 0
48 -516 0
52 -516 0
-48 -52 516 0
-422 -423 -520 0
422 423 -520 0
-423 423 -520 0
-422 423 520 0
422 -423 520 0
423 -423 520 0
520 -525 0
-424 -425 -522 0
424 425 -522 0
-425 425 -522 0
-424 425 522 0
424 -425 522 0
425 -425 522 0
522 -525 0
-520 -522 525 0
422 -521 0
423 -521 0
-422 -423 521 0
424 -523 0
425 -523 0
-424 -425 523 0
-521 -523 -526 0
521 523 -526 0
-523 523 -526 0
-521 523 526 0
521 -523 526 0
523 -523 526 0
-525 -526 -527 0
525 526 -527 0
-526 526 -527 0
-525 526 527 0
525 -526 527 0
526 -526 527 0
-527 533 0
-527 -532 0
-520 -522 -524 0
520 522 -524 0
-522 522 -524 0
-520 522 524 0
520 -522 524 0
522 -522 524 0
524 -532 0
527 -524 532 0
-532 533 0
527 532 -533 0
521 -528 0
523 -528 0
-521 -523 528 0
-528 530 0
525 -529 0
526 -529 0
-525 -526 529 0
-529 530 0
528 529 -530 0
-533 530 -534 0
533 -530 -534 0
530 -530 -534 0
-533 -530 534 0
533 530 534 0
-530 530 534 0
-534 -545 0
-524 527 -531 0
524 -527 -531 0
527 -527 -531 0
-524 -527 531 0
524 527 531 0
-527 527 531 0
-531 -545 0
524 -545 0
-530 536 0
-530 -535 0
533 -535 0
530 -533 535 0
-535 536 0
530 535 -536 0
536 -545 0
534 531 -524 -536 545 0
-516 545 -553 0
553 -557 0
49 -517 0
52 -517 0
-49 -52 517 0
-534 -546 0
-531 -546 0
-524 -546 0
536 -546 0
534 531 524 -536 546 0
-517 546 -554 0
554 -557 0
50 -518 0
52 -518 0
-50 -52 518 0
-534 -547 0
524 -547 0
531 -547 0
536 -547 0
534 -524 -531 -536 547 0
-518 547 -555 0
555 -557 0
51 -519 0
52 -519 0
-51 -52 519 0
-534 -548 0
-524 -548 0
531 -548 0
536 -548 0
534 524 -531 -536 548 0
-519 548 -556 0
556 -557 0
557 -563 0
524 -531 -534 -536 552 0
-552 -562 0
-524 -531 -534 -536 551 0
-551 -562 0
531 524 -534 -536 550 0
-550 -562 0
531 -524 -534 -536 549 0
-549 -562 0
536 524 -531 -534 544 0
-544 -562 0
536 -524 -531 -534 543 0
-543 -562 0
536 531 524 -534 542 0
-542 -562 0
536 531 -524 -534 541 0
-541 -562 0
536 534 524 -531 540 0
-540 -562 0
536 534 -524 -531 539 0
-539 -562 0
536 534 531 524 538 0
-538 -562 0
536 534 531 -524 537 0
-537 -562 0
-545 516 -558 0
558 -562 0
-546 517 -559 0
559 -562 0
-547 518 -560 0
560 -562 0
-548 519 -561 0
561 -562 0
562 -563 0
563 -564 0
564 -565 0
565 -593 0
-518 -519 582 0
-518 519 581 0
518 -519 581 0
519 -519 581 0
-517 -519 584 0
-581 -584 586 0
-582 -586 588 0
-588 -592 0
-41 -139 566 0
-566 576 0
-44 -140 570 0
-570 576 0
-45 -141 572 0
-572 576 0
-47 -142 574 0
-574 576 0
42 -568 0
139 -568 0
39 -573 0
141 -573 0
40 -575 0
142 -575 0
568 573 575 -578 0
37 -567 0
139 -567 0
38 -571 0
140 -571 0
567 571 -577 0
43 -569 0
139 -569 0
578 577 569 187 579 0
-576 -579 580 0
-580 -592 0
592 -593 0
52 0
61 0
69 0
106 0
114 0
121 0
297 0
302 0
593 0
