jpf-symbc-bounded/src/examples/symbolicheap/bounded/bounddb/LinkedList-04.txt
#LinkedList_0
@header
@next
@previous
LinkedList/LinkedList_0/header/null
LinkedList/LinkedList_0/header/LinkedListNode_0
LinkedListNode/LinkedListNode_0/next/LinkedListNode_1
LinkedListNode/LinkedListNode_0/next/null
LinkedListNode/LinkedListNode_1/next/LinkedListNode_2
LinkedListNode/LinkedListNode_1/next/LinkedListNode_3
LinkedListNode/LinkedListNode_1/next/null
LinkedListNode/LinkedListNode_2/next/null
LinkedListNode/LinkedListNode_3/next/null
LinkedListNode/LinkedListNode_0/next/LinkedListNode_0
LinkedListNode/LinkedListNode_1/next/LinkedListNode_0
LinkedListNode/LinkedListNode_2/next/LinkedListNode_0
LinkedListNode/LinkedListNode_3/next/LinkedListNode_2
LinkedListNode/LinkedListNode_0/prev/LinkedListNode_1
LinkedListNode/LinkedListNode_0/prev/LinkedListNode_2
LinkedListNode/LinkedListNode_0/prev/null
LinkedListNode/LinkedListNode_1/prev/null
LinkedListNode/LinkedListNode_2/prev/LinkedListNode_3
LinkedListNode/LinkedListNode_2/prev/null
LinkedListNode/LinkedListNode_3/prev/null
LinkedListNode/LinkedListNode_0/prev/LinkedListNode_0
LinkedListNode/LinkedListNode_1/prev/LinkedListNode_0
LinkedListNode/LinkedListNode_2/prev/LinkedListNode_1
LinkedListNode/LinkedListNode_3/prev/LinkedListNode_1
